
        $ From http://www.csplib.org/Problems/prob009/data/helmut.pdf
        $ Problem number 46
        $ Sequence length : 24
        language ESSENCE' 1.0
        letting sizemaster be 459
        letting sizes be sequence(4,6,9,10,17,21,23,25,31,33,36,38,45,50,83,115,117,126,133,135,144,146,180,198)
        